NAME: random-61-7867
TYPE: TSP
COMMENT: size=61 seed=7867
DIMENSION: 124
EDGE_WEIGHT_TYPE: EUC_2D
NODE_COORD_SECTION
+0 669 885
-0 669 885
+1 733 690
-1 258 246
+2 673 312
-2 481 413
+3 125 77
-3 989 52
+4 996 223
-4 928 929
+5 953 429
-5 152 726
+6 88 96
-6 52 858
+7 488 593
-7 932 730
+8 496 158
-8 140 257
+9 321 533
-9 981 329
+10 268 961
-10 536 190
+11 620 478
-11 733 424
+12 383 368
-12 457 225
+13 946 634
-13 734 907
+14 439 465
-14 166 929
+15 922 479
-15 516 485
+16 100 309
-16 888 425
+17 644 651
-17 833 293
+18 732 988
-18 906 247
+19 527 794
-19 945 850
+20 441 556
-20 115 215
+21 229 121
-21 258 486
+22 303 836
-22 398 18
+23 468 755
-23 434 937
+24 845 39
-24 400 99
+25 145 92
-25 584 782
+26 556 827
-26 595 979
+27 910 881
-27 798 35
+28 701 196
-28 540 638
+29 482 502
-29 822 382
+30 815 399
-30 117 363
+31 948 408
-31 405 621
+32 521 848
-32 595 992
+33 340 764
-33 344 457
+34 208 784
-34 264 323
+35 156 625
-35 221 664
+36 527 825
-36 475 425
+37 444 781
-37 174 646
+38 188 136
-38 1 691
+39 151 339
-39 805 143
+40 638 746
-40 757 684
+41 65 327
-41 55 49
+42 231 109
-42 238 949
+43 646 274
-43 75 52
+44 320 739
-44 974 142
+45 192 113
-45 963 450
+46 627 424
-46 170 245
+47 492 656
-47 419 196
+48 464 448
-48 813 486
+49 266 418
-49 661 695
+50 808 737
-50 251 656
+51 652 33
-51 328 202
+52 12 920
-52 12 184
+53 8 290
-53 768 974
+54 83 833
-54 542 825
+55 855 446
-55 997 528
+56 25 251
-56 714 822
+57 909 450
-57 307 873
+58 985 663
-58 911 462
+59 204 329
-59 830 667
+60 262 512
-60 619 487
+61 737 626
-61 672 60
PRECEDENCE_SECTION
+0 -0
+1 -1
+2 -2
+3 -3
+4 -4
+5 -5
+6 -6
+7 -7
+8 -8
+9 -9
+10 -10
+11 -11
+12 -12
+13 -13
+14 -14
+15 -15
+16 -16
+17 -17
+18 -18
+19 -19
+20 -20
+21 -21
+22 -22
+23 -23
+24 -24
+25 -25
+26 -26
+27 -27
+28 -28
+29 -29
+30 -30
+31 -31
+32 -32
+33 -33
+34 -34
+35 -35
+36 -36
+37 -37
+38 -38
+39 -39
+40 -40
+41 -41
+42 -42
+43 -43
+44 -44
+45 -45
+46 -46
+47 -47
+48 -48
+49 -49
+50 -50
+51 -51
+52 -52
+53 -53
+54 -54
+55 -55
+56 -56
+57 -57
+58 -58
+59 -59
+60 -60
+61 -61
EOF
